4 10 6 15 18 14 0 8 11 17 12 9 19 5 3 13 7 2 1 16  
4 15 18 10 14 6 11 7 8 17 12 9 19 5 1 0 2 13 16 3  
4 15 18 10 14 6 8 0 11 16 9 19 5 17 1 13 12 7 2 3  
4 15 18 10 14 6 8 0 11 16 9 19 12 5 17 1 7 13 2 3  
4 15 18 10 14 6 0 8 11 7 9 19 12 5 13 2 17 16 1 3  
4 15 18 10 14 6 11 17 12 9 19 5 2 0 1 7 3 13 16 8  
4 15 18 10 14 6 0 8 11 17 12 9 19 2 13 16 5 7 3 1  
4 15 18 10 14 6 8 7 11 17 12 9 19 5 2 0 1 3 13 16  
4 15 18 10 14 6 11 17 12 9 19 5 1 0 2 7 3 13 16 8  
4 15 18 10 14 6 7 11 8 17 12 9 19 5 2 1 0 13 16 3  
4 15 18 10 14 6 0 8 11 17 12 9 19 16 5 7 13 2 1 3  
4 15 18 10 14 6 11 17 12 9 19 5 2 0 1 7 3 13 16 8  
4 10 18 15 6 14 11 7 8 17 12 9 19 5 2 13 16 0 1 3  
4 10 6 15 18 14 0 8 11 17 12 9 19 5 2 13 16 1 7 3  
4 15 18 10 14 6 0 8 12 17 11 1 5 9 19 2 7 13 16 3  
4 15 18 10 14 6 8 0 11 17 12 9 19 2 13 16 5 7 3 1  
4 15 18 10 14 6 7 8 11 0 12 9 19 5 17 1 2 13 16 3  
4 10 6 15 18 14 0 8 11 17 12 9 19 5 2 13 16 7 1 3  
4 15 18 10 14 6 11 7 8 17 12 9 19 5 1 0 2 13 16 3  
4 15 18 10 14 6 8 0 11 16 9 19 5 17 1 13 12 7 2 3  
4 15 18 10 14 6 0 8 11 17 12 9 19 5 3 13 16 7 2 1  
4 15 18 10 14 6 8 0 11 17 12 9 19 7 3 13 16 5 2 1  
4 15 18 10 14 6 17 8 12 0 11 1 5 9 19 2 13 16 7 3  
4 15 18 10 14 6 8 0 11 16 9 19 12 5 17 1 7 3 2 13  
4 15 18 10 14 6 11 7 8 0 12 9 19 5 2 17 1 3 13 16  
4 10 6 18 15 14 0 8 11 17 12 9 19 5 2 13 16 7 1 3  
4 15 18 10 14 6 17 8 11 12 0 9 19 3 13 16 5 7 2 1  
4 15 18 10 14 6 8 17 11 16 9 19 12 5 0 1 2 7 3 13  
4 15 18 10 14 6 0 8 12 17 11 1 5 9 19 2 7 13 16 3  
4 15 18 10 14 6 8 0 12 9 19 11 5 2 17 1 7 3 13 16  
4 15 18 10 14 6 11 17 12 9 19 5 8 0 1 7 2 13 16 3  
4 15 18 10 14 6 7 8 11 0 12 9 19 5 2 1 17 13 16 3  
4 15 18 10 14 6 7 8 11 0 12 9 19 5 2 1 17 13 16 3  
4 15 18 10 6 14 11 7 8 17 12 9 19 5 2 0 1 13 16 3  
4 15 18 10 14 6 7 8 11 0 12 9 19 5 17 1 2 13 16 3  
4 15 18 10 14 6 17 8 11 12 0 9 19 3 13 16 5 7 2 1  
4 15 18 10 14 6 8 17 11 16 9 19 12 5 0 1 3 7 2 13  
4 15 18 10 6 11 0 12 9 19 5 7 1 17 2 14 3 13 16 8  
4 15 18 10 14 6 0 8 11 16 17 12 9 19 5 2 13 7 3 1  
4 15 18 10 14 6 8 0 11 17 12 9 19 7 3 13 16 5 2 1  
4 15 18 10 14 6 11 7 8 17 12 9 19 5 2 1 0 13 16 3  
4 15 18 10 7 6 11 0 12 9 19 5 1 14 2 17 3 13 16 8  
4 15 18 10 14 6 7 11 17 12 9 19 5 1 0 2 3 13 16 8  
4 15 18 10 14 6 7 8 11 0 12 9 17 19 3 13 16 5 2 1  
4 10 6 18 15 14 0 8 11 17 12 9 19 5 3 13 16 2 1 7  
4 15 18 10 6 11 0 12 9 19 2 7 1 17 5 14 3 13 16 8  
4 15 18 10 14 6 11 17 8 12 0 1 5 9 19 2 13 16 7 3  
4 15 18 10 14 6 8 17 11 12 0 9 19 16 5 13 2 1 7 3  
4 15 18 10 14 6 11 0 12 9 19 5 8 17 1 2 7 13 16 3  
4 15 18 10 14 6 0 8 11 17 12 9 19 16 5 13 2 1 7 3  
4 15 18 10 14 6 0 8 11 17 12 9 13 7 3 19 16 5 2 1  
4 15 18 10 14 6 0 8 11 17 12 9 19 16 5 7 13 2 1 3  
4 10 6 18 15 14 0 8 11 17 12 9 13 5 3 19 16 7 2 1  
4 15 18 10 14 6 8 17 11 12 9 19 16 5 0 1 3 7 2 13  
